db/data/28912105842611013085288132865235483794.z3.out
-------------------
2500.191996483
